NAME: random-47-6743
TYPE: TSP
COMMENT: size=47 seed=6743
DIMENSION: 96
EDGE_WEIGHT_TYPE: EUC_2D
NODE_COORD_SECTION
+0 601 765
-0 601 765
+1 966 124
-1 93 35
+2 529 393
-2 425 801
+3 415 455
-3 421 292
+4 286 650
-4 625 566
+5 824 957
-5 550 20
+6 945 428
-6 417 931
+7 453 889
-7 785 785
+8 873 341
-8 769 508
+9 942 7
-9 943 442
+10 226 921
-10 815 535
+11 84 505
-11 831 258
+12 956 777
-12 47 692
+13 903 501
-13 290 136
+14 972 984
-14 680 953
+15 746 391
-15 700 135
+16 299 269
-16 193 827
+17 74 660
-17 142 153
+18 209 492
-18 611 45
+19 594 209
-19 77 196
+20 538 127
-20 765 869
+21 593 370
-21 307 695
+22 960 237
-22 600 334
+23 413 59
-23 441 50
+24 622 313
-24 482 745
+25 162 186
-25 561 510
+26 499 456
-26 241 337
+27 301 105
-27 160 518
+28 402 143
-28 994 395
+29 687 659
-29 331 403
+30 569 254
-30 402 873
+31 378 682
-31 331 591
+32 765 539
-32 846 983
+33 515 718
-33 34 745
+34 642 898
-34 80 896
+35 957 459
-35 84 645
+36 78 838
-36 988 74
+37 5 240
-37 380 254
+38 282 155
-38 978 468
+39 189 703
-39 838 113
+40 252 794
-40 684 720
+41 257 729
-41 335 913
+42 902 160
-42 970 505
+43 922 163
-43 179 809
+44 868 720
-44 729 331
+45 723 528
-45 358 23
+46 603 258
-46 974 739
+47 47 872
-47 473 307
PRECEDENCE_SECTION
+0 -0
+1 -1
+2 -2
+3 -3
+4 -4
+5 -5
+6 -6
+7 -7
+8 -8
+9 -9
+10 -10
+11 -11
+12 -12
+13 -13
+14 -14
+15 -15
+16 -16
+17 -17
+18 -18
+19 -19
+20 -20
+21 -21
+22 -22
+23 -23
+24 -24
+25 -25
+26 -26
+27 -27
+28 -28
+29 -29
+30 -30
+31 -31
+32 -32
+33 -33
+34 -34
+35 -35
+36 -36
+37 -37
+38 -38
+39 -39
+40 -40
+41 -41
+42 -42
+43 -43
+44 -44
+45 -45
+46 -46
+47 -47
EOF
